lps/t_sol_ini_ID000M003J005_ZintTrue_minla_fav_ub1.lp
\ This file has been generated by DOcplex
\ ENCODING=ISO-8859-1
\Problem name: minla_fav

Minimize
 obj: cmax
Subject To
 c1: x_1_0 - x_0_0 >= 1
 c2: x_2_0 - x_1_0 >= 3
 c3: x_0_1 - x_1_1 >= 8
 c4: x_2_1 - x_0_1 >= 5
 c5: x_2_2 - x_0_2 >= 5
 c6: x_1_2 - x_2_2 >= 4
 c7: x_0_3 - x_2_3 >= 4
 c8: x_1_3 - x_0_3 >= 10
 c9: x_2_4 - x_1_4 >= 8
 c10: x_0_4 - x_2_4 >= 3
 c11: x_0_0 - x_0_1 + 84 z_0_0_1 >= 5
 c12: x_0_1 - x_0_0 - 84 z_0_0_1 >= -83
 c13: x_0_0 - x_0_2 + 84 z_0_0_2 >= 5
 c14: x_0_2 - x_0_0 - 84 z_0_0_2 >= -83
 c15: x_0_0 - x_0_3 + 84 z_0_0_3 >= 10
 c16: x_0_3 - x_0_0 - 84 z_0_0_3 >= -83
 c17: x_0_0 - x_0_4 + 84 z_0_0_4 >= 7
 c18: x_0_4 - x_0_0 - 84 z_0_0_4 >= -83
 c19: x_0_1 - x_0_2 + 84 z_0_1_2 >= 5
 c20: x_0_2 - x_0_1 - 84 z_0_1_2 >= -79
 c21: x_0_1 - x_0_3 + 84 z_0_1_3 >= 10
 c22: x_0_3 - x_0_1 - 84 z_0_1_3 >= -79
 c23: x_0_1 - x_0_4 + 84 z_0_1_4 >= 7
 c24: x_0_4 - x_0_1 - 84 z_0_1_4 >= -79
 c25: x_0_2 - x_0_3 + 84 z_0_2_3 >= 10
 c26: x_0_3 - x_0_2 - 84 z_0_2_3 >= -79
 c27: x_0_2 - x_0_4 + 84 z_0_2_4 >= 7
 c28: x_0_4 - x_0_2 - 84 z_0_2_4 >= -79
 c29: x_0_3 - x_0_4 + 84 z_0_3_4 >= 7
 c30: x_0_4 - x_0_3 - 84 z_0_3_4 >= -74
 c31: x_1_0 - x_1_1 + 84 z_1_0_1 >= 8
 c32: x_1_1 - x_1_0 - 84 z_1_0_1 >= -81
 c33: x_1_0 - x_1_2 + 84 z_1_0_2 >= 8
 c34: x_1_2 - x_1_0 - 84 z_1_0_2 >= -81
 c35: x_1_0 - x_1_3 + 84 z_1_0_3 >= 6
 c36: x_1_3 - x_1_0 - 84 z_1_0_3 >= -81
 c37: x_1_0 - x_1_4 + 84 z_1_0_4 >= 8
 c38: x_1_4 - x_1_0 - 84 z_1_0_4 >= -81
 c39: x_1_1 - x_1_2 + 84 z_1_1_2 >= 8
 c40: x_1_2 - x_1_1 - 84 z_1_1_2 >= -76
 c41: x_1_1 - x_1_3 + 84 z_1_1_3 >= 6
 c42: x_1_3 - x_1_1 - 84 z_1_1_3 >= -76
 c43: x_1_1 - x_1_4 + 84 z_1_1_4 >= 8
 c44: x_1_4 - x_1_1 - 84 z_1_1_4 >= -76
 c45: x_1_2 - x_1_3 + 84 z_1_2_3 >= 6
 c46: x_1_3 - x_1_2 - 84 z_1_2_3 >= -76
 c47: x_1_2 - x_1_4 + 84 z_1_2_4 >= 8
 c48: x_1_4 - x_1_2 - 84 z_1_2_4 >= -76
 c49: x_1_3 - x_1_4 + 84 z_1_3_4 >= 8
 c50: x_1_4 - x_1_3 - 84 z_1_3_4 >= -78
 c51: x_2_0 - x_2_1 + 84 z_2_0_1 >= 10
 c52: x_2_1 - x_2_0 - 84 z_2_0_1 >= -82
 c53: x_2_0 - x_2_2 + 84 z_2_0_2 >= 4
 c54: x_2_2 - x_2_0 - 84 z_2_0_2 >= -82
 c55: x_2_0 - x_2_3 + 84 z_2_0_3 >= 4
 c56: x_2_3 - x_2_0 - 84 z_2_0_3 >= -82
 c57: x_2_0 - x_2_4 + 84 z_2_0_4 >= 3
 c58: x_2_4 - x_2_0 - 84 z_2_0_4 >= -82
 c59: x_2_1 - x_2_2 + 84 z_2_1_2 >= 4
 c60: x_2_2 - x_2_1 - 84 z_2_1_2 >= -74
 c61: x_2_1 - x_2_3 + 84 z_2_1_3 >= 4
 c62: x_2_3 - x_2_1 - 84 z_2_1_3 >= -74
 c63: x_2_1 - x_2_4 + 84 z_2_1_4 >= 3
 c64: x_2_4 - x_2_1 - 84 z_2_1_4 >= -74
 c65: x_2_2 - x_2_3 + 84 z_2_2_3 >= 4
 c66: x_2_3 - x_2_2 - 84 z_2_2_3 >= -80
 c67: x_2_2 - x_2_4 + 84 z_2_2_4 >= 3
 c68: x_2_4 - x_2_2 - 84 z_2_2_4 >= -80
 c69: x_2_3 - x_2_4 + 84 z_2_3_4 >= 3
 c70: x_2_4 - x_2_3 - 84 z_2_3_4 >= -80
 c71: x_0_0 + 5 z_0_0_1 + 5 z_0_0_2 + 10 z_0_0_3 + 7 z_0_0_4 >= 27
 c72: x_0_1 - z_0_0_1 + 5 z_0_1_2 + 10 z_0_1_3 + 7 z_0_1_4 >= 22
 c73: x_0_2 - z_0_0_2 - 5 z_0_1_2 + 10 z_0_2_3 + 7 z_0_2_4 >= 17
 c74: x_0_3 - z_0_0_3 - 5 z_0_1_3 - 5 z_0_2_3 + 7 z_0_3_4 >= 7
 c75: x_0_4 - z_0_0_4 - 5 z_0_1_4 - 5 z_0_2_4 - 10 z_0_3_4 >= 0
 c76: x_1_0 + 8 z_1_0_1 + 8 z_1_0_2 + 6 z_1_0_3 + 8 z_1_0_4 >= 30
 c77: x_1_1 - 3 z_1_0_1 + 8 z_1_1_2 + 6 z_1_1_3 + 8 z_1_1_4 >= 22
 c78: x_1_2 - 3 z_1_0_2 - 8 z_1_1_2 + 6 z_1_2_3 + 8 z_1_2_4 >= 14
 c79: x_1_3 - 3 z_1_0_3 - 8 z_1_1_3 - 8 z_1_2_3 + 8 z_1_3_4 >= 8
 c80: x_1_4 - 3 z_1_0_4 - 8 z_1_1_4 - 8 z_1_2_4 - 6 z_1_3_4 >= 0
 c81: x_2_0 + 10 z_2_0_1 + 4 z_2_0_2 + 4 z_2_0_3 + 3 z_2_0_4 >= 21
 c82: x_2_1 - 2 z_2_0_1 + 4 z_2_1_2 + 4 z_2_1_3 + 3 z_2_1_4 >= 11
 c83: x_2_2 - 2 z_2_0_2 - 10 z_2_1_2 + 4 z_2_2_3 + 3 z_2_2_4 >= 7
 c84: x_2_3 - 2 z_2_0_3 - 10 z_2_1_3 - 4 z_2_2_3 + 3 z_2_3_4 >= 3
 c85: x_2_4 - 2 z_2_0_4 - 10 z_2_1_4 - 4 z_2_2_4 - 4 z_2_3_4 >= 0
 c86: x_0_1 - z_0_0_1 >= 0
 c87: x_0_0 + 13 z_0_0_1 >= 13
 c88: x_0_2 - z_0_0_2 >= 0
 c89: x_0_0 + 5 z_0_0_2 >= 5
 c90: x_0_2 - 13 z_0_1_2 >= 0
 c91: x_0_1 + 5 z_0_1_2 >= 5
 c92: x_0_3 - z_0_0_3 >= 0
 c93: x_0_0 + 14 z_0_0_3 >= 14
 c94: x_0_3 - 13 z_0_1_3 >= 0
 c95: x_0_1 + 14 z_0_1_3 >= 14
 c96: x_0_3 - 5 z_0_2_3 >= 0
 c97: x_0_2 + 14 z_0_2_3 >= 14
 c98: x_0_4 - z_0_0_4 >= 0
 c99: x_0_0 + 18 z_0_0_4 >= 18
 c100: x_0_4 - 13 z_0_1_4 >= 0
 c101: x_0_1 + 18 z_0_1_4 >= 18
 c102: x_0_4 - 5 z_0_2_4 >= 0
 c103: x_0_2 + 18 z_0_2_4 >= 18
 c104: x_0_4 - 14 z_0_3_4 >= 0
 c105: x_0_3 + 18 z_0_3_4 >= 18
 c106: x_1_1 - 4 z_1_0_1 >= 0
 c107: x_1_0 + 8 z_1_0_1 >= 8
 c108: x_1_2 - 4 z_1_0_2 >= 0
 c109: x_1_0 + 17 z_1_0_2 >= 17
 c110: x_1_2 - 8 z_1_1_2 >= 0
 c111: x_1_1 + 17 z_1_1_2 >= 17
 c112: x_1_3 - 4 z_1_0_3 >= 0
 c113: x_1_0 + 20 z_1_0_3 >= 20
 c114: x_1_3 - 8 z_1_1_3 >= 0
 c115: x_1_1 + 20 z_1_1_3 >= 20
 c116: x_1_3 - 17 z_1_2_3 >= 0
 c117: x_1_2 + 20 z_1_2_3 >= 20
 c118: x_1_4 - 4 z_1_0_4 >= 0
 c119: x_1_0 + 8 z_1_0_4 >= 8
 c120: x_1_4 - 8 z_1_1_4 >= 0
 c121: x_1_1 + 8 z_1_1_4 >= 8
 c122: x_1_4 - 17 z_1_2_4 >= 0
 c123: x_1_2 + 8 z_1_2_4 >= 8
 c124: x_1_4 - 20 z_1_3_4 >= 0
 c125: x_1_3 + 8 z_1_3_4 >= 8
 c126: x_2_1 - 6 z_2_0_1 >= 0
 c127: x_2_0 + 23 z_2_0_1 >= 23
 c128: x_2_2 - 6 z_2_0_2 >= 0
 c129: x_2_0 + 9 z_2_0_2 >= 9
 c130: x_2_2 - 23 z_2_1_2 >= 0
 c131: x_2_1 + 9 z_2_1_2 >= 9
 c132: x_2_3 - 6 z_2_0_3 >= 0
 c133: x_2_0 + 4 z_2_0_3 >= 4
 c134: x_2_3 - 23 z_2_1_3 >= 0
 c135: x_2_1 + 4 z_2_1_3 >= 4
 c136: x_2_3 - 9 z_2_2_3 >= 0
 c137: x_2_2 + 4 z_2_2_3 >= 4
 c138: x_2_4 - 6 z_2_0_4 >= 0
 c139: x_2_0 + 11 z_2_0_4 >= 11
 c140: x_2_4 - 23 z_2_1_4 >= 0
 c141: x_2_1 + 11 z_2_1_4 >= 11
 c142: x_2_4 - 9 z_2_2_4 >= 0
 c143: x_2_2 + 11 z_2_2_4 >= 11
 c144: x_2_4 - 4 z_2_3_4 >= 0
 c145: x_2_3 + 11 z_2_3_4 >= 11
 c146: cmax - x_0_0 - 15 z_0_0_1 >= 1
 c147: cmax - x_0_1 + 6 z_0_0_1 >= 11
 c148: cmax - x_0_0 - 17 z_0_0_2 >= 1
 c149: cmax - x_0_2 + 6 z_0_0_2 >= 11
 c150: cmax - x_0_0 - 16 z_0_0_3 >= 1
 c151: cmax - x_0_3 + 6 z_0_0_3 >= 16
 c152: cmax - x_0_0 - 7 z_0_0_4 >= 1
 c153: cmax - x_0_4 + 6 z_0_0_4 >= 13
 c154: cmax - x_0_1 - 17 z_0_1_2 >= 5
 c155: cmax - x_0_2 + 15 z_0_1_2 >= 20
 c156: cmax - x_0_1 - 16 z_0_1_3 >= 5
 c157: cmax - x_0_3 + 15 z_0_1_3 >= 25
 c158: cmax - x_0_1 - 7 z_0_1_4 >= 5
 c159: cmax - x_0_4 + 15 z_0_1_4 >= 22
 c160: cmax - x_0_2 - 16 z_0_2_3 >= 5
 c161: cmax - x_0_3 + 17 z_0_2_3 >= 27
 c162: cmax - x_0_2 - 7 z_0_2_4 >= 5
 c163: cmax - x_0_4 + 17 z_0_2_4 >= 24
 c164: cmax - x_0_3 - 7 z_0_3_4 >= 10
 c165: cmax - x_0_4 + 16 z_0_3_4 >= 23
 c166: cmax - x_1_0 - 23 z_1_0_1 >= 3
 c167: cmax - x_1_1 + 5 z_1_0_1 >= 13
 c168: cmax - x_1_0 - 8 z_1_0_2 >= 3
 c169: cmax - x_1_2 + 5 z_1_0_2 >= 13
 c170: cmax - x_1_0 - 6 z_1_0_3 >= 3
 c171: cmax - x_1_3 + 5 z_1_0_3 >= 11
 c172: cmax - x_1_0 - 18 z_1_0_4 >= 3
 c173: cmax - x_1_4 + 5 z_1_0_4 >= 13
 c174: cmax - x_1_1 - 8 z_1_1_2 >= 8
 c175: cmax - x_1_2 + 23 z_1_1_2 >= 31
 c176: cmax - x_1_1 - 6 z_1_1_3 >= 8
 c177: cmax - x_1_3 + 23 z_1_1_3 >= 29
 c178: cmax - x_1_1 - 18 z_1_1_4 >= 8
 c179: cmax - x_1_4 + 23 z_1_1_4 >= 31
 c180: cmax - x_1_2 - 6 z_1_2_3 >= 8
 c181: cmax - x_1_3 + 8 z_1_2_3 >= 14
 c182: cmax - x_1_2 - 18 z_1_2_4 >= 8
 c183: cmax - x_1_4 + 8 z_1_2_4 >= 16
 c184: cmax - x_1_3 - 18 z_1_3_4 >= 6
 c185: cmax - x_1_4 + 6 z_1_3_4 >= 14
 c186: cmax - x_2_0 - 10 z_2_0_1 >= 2
 c187: cmax - x_2_1 + 2 z_2_0_1 >= 12
 c188: cmax - x_2_0 - 12 z_2_0_2 >= 2
 c189: cmax - x_2_2 + 2 z_2_0_2 >= 6
 c190: cmax - x_2_0 - 20 z_2_0_3 >= 2
 c191: cmax - x_2_3 + 2 z_2_0_3 >= 6
 c192: cmax - x_2_0 - 10 z_2_0_4 >= 2
 c193: cmax - x_2_4 + 2 z_2_0_4 >= 5
 c194: cmax - x_2_1 - 12 z_2_1_2 >= 10
 c195: cmax - x_2_2 + 10 z_2_1_2 >= 14
 c196: cmax - x_2_1 - 20 z_2_1_3 >= 10
 c197: cmax - x_2_3 + 10 z_2_1_3 >= 14
 c198: cmax - x_2_1 - 10 z_2_1_4 >= 10
 c199: cmax - x_2_4 + 10 z_2_1_4 >= 13
 c200: cmax - x_2_2 - 20 z_2_2_3 >= 4
 c201: cmax - x_2_3 + 12 z_2_2_3 >= 16
 c202: cmax - x_2_2 - 10 z_2_2_4 >= 4
 c203: cmax - x_2_4 + 12 z_2_2_4 >= 15
 c204: cmax - x_2_3 - 10 z_2_3_4 >= 4
 c205: cmax - x_2_4 + 20 z_2_3_4 >= 23
 c206: cmax - x_0_0 >= 6
 c207: cmax - x_0_1 >= 15
 c208: cmax - x_0_2 >= 17
 c209: cmax - x_0_3 >= 16
 c210: cmax - x_0_4 >= 7
 c211: cmax - x_1_0 >= 5
 c212: cmax - x_1_1 >= 23
 c213: cmax - x_1_2 >= 8
 c214: cmax - x_1_3 >= 6
 c215: cmax - x_1_4 >= 18
 c216: cmax - x_2_0 >= 2
 c217: cmax - x_2_1 >= 10
 c218: cmax - x_2_2 >= 12
 c219: cmax - x_2_3 >= 20
 c220: cmax - x_2_4 >= 10

Bounds
 0 <= z_0_0_1 <= 1
 0 <= z_0_0_2 <= 1
 0 <= z_0_0_3 <= 1
 0 <= z_0_0_4 <= 1
 0 <= z_0_1_2 <= 1
 0 <= z_0_1_3 <= 1
 0 <= z_0_1_4 <= 1
 0 <= z_0_2_3 <= 1
 0 <= z_0_2_4 <= 1
 0 <= z_0_3_4 <= 1
 0 <= z_1_0_1 <= 1
 0 <= z_1_0_2 <= 1
 0 <= z_1_0_3 <= 1
 0 <= z_1_0_4 <= 1
 0 <= z_1_1_2 <= 1
 0 <= z_1_1_3 <= 1
 0 <= z_1_1_4 <= 1
 0 <= z_1_2_3 <= 1
 0 <= z_1_2_4 <= 1
 0 <= z_1_3_4 <= 1
 0 <= z_2_0_1 <= 1
 0 <= z_2_0_2 <= 1
 0 <= z_2_0_3 <= 1
 0 <= z_2_0_4 <= 1
 0 <= z_2_1_2 <= 1
 0 <= z_2_1_3 <= 1
 0 <= z_2_1_4 <= 1
 0 <= z_2_2_3 <= 1
 0 <= z_2_2_4 <= 1
 0 <= z_2_3_4 <= 1
 23 <= cmax

Binaries
 z_0_0_1 z_0_0_2 z_0_0_3 z_0_0_4 z_0_1_2 z_0_1_3 z_0_1_4 z_0_2_3 z_0_2_4 z_0_3_4
 z_1_0_1 z_1_0_2 z_1_0_3 z_1_0_4 z_1_1_2 z_1_1_3 z_1_1_4 z_1_2_3 z_1_2_4 z_1_3_4
 z_2_0_1 z_2_0_2 z_2_0_3 z_2_0_4 z_2_1_2 z_2_1_3 z_2_1_4 z_2_2_3 z_2_2_4 z_2_3_4
End
